n = 100;
C = 25019;
w = [753,829,909,681,891,320,442,148,68,853,231,220,117,493,856,93,458,183,388,726,221,182,750,459,915,695,396,878,669,205,795,386,865,597,761,31,638,610,897,809,563,993,659,377,184,310,218,242,124,285,412,509,38,874,877,725,915,962,812,283,462,160,676,996,123,465,380,150,588,408,568,47,845,515,70,479,807,804,146,992,488,977,291,725,497,108,507,160,263,955,3,922,491,449,652,655,114,123,119,79];
p = [751,843,959,610,799,253,477,204,151,928,134,305,93,590,948,170,508,243,297,645,212,253,758,433,914,686,405,929,748,283,823,459,801,646,824,-25,724,588,871,883,572,1047,688,385,175,349,203,280,115,232,491,432,126,902,817,688,843,1033,751,192,427,141,703,1024,67,373,418,192,505,358,627,-41,906,484,90,415,827,858,235,924,563,1076,214,777,447,93,461,155,166,945,-69,932,516,373,703,627,41,123,182,-16];
